  9	64
 20
  0	 22	  1	 61	 86	 54	 65	  4	118	 55	125	 38	 16	119	 48	102	 80	 68	112	129	
 16
  0	 50	 26	 90	 53	114	  9	 24	117	 73	 88	 19	  5	 83	 69	129	
 26
  0	 47	111	  7	  3	 45	 63	109	 71	 14	 57	127	 67	121	 31	 78	 52	116	 95	 27	 30	 20	 91	 84	 94	129	
 14
  0	 33	  6	 97	 70	 42	 59	123	 40	 10	104	106	 74	129	
 20
  0	 56	  2	 44	 43	 66	 17	120	 81	107	108	 36	 11	100	 37	 75	 34	101	 98	129	
  8
  0	 15	 23	 87	 79	 49	113	129	
 12
  0	 21	 28	 32	 92	 60	 96	 85	124	 39	103	129	
 12
  0	 46	  8	110	 72	 12	 58	 76	 51	122	115	129	
 18
  0	 35	 99	 13	 29	 18	 25	 77	 62	 64	 82	 89	 41	 93	126	128	105	129	
